
Gurobi 9.5.2 (mac64[arm]) logging started Fri Apr 28 12:58:41 2023

Set parameter LogFile to value "Java/output/pure_mip_2_machine/scenario_seed_1_nJob_20_machineCount_2/mip_increment_1/log.txt"
Gurobi Optimizer version 9.5.2 build v9.5.2rc0 (mac64[arm])
Thread count: 8 physical cores, 8 logical processors, using up to 8 threads
Optimize a model with 1012 rows, 9120 columns and 95393 nonzeros
Model fingerprint: 0xd6d0709a
Variable types: 0 continuous, 9120 integer (9120 binary)
Coefficient statistics:
  Matrix range     [1e+00, 9e+01]
  Objective range  [5e+00, 7e+05]
  Bounds range     [1e+00, 1e+00]
  RHS range        [1e+00, 1e+00]
Presolve removed 150 rows and 2356 columns
Presolve time: 0.10s
Presolved: 862 rows, 6764 columns, 70441 nonzeros
Variable types: 0 continuous, 6764 integer (6764 binary)

Root relaxation: objective 4.218917e+04, 3295 iterations, 0.12 seconds (0.24 work units)

    Nodes    |    Current Node    |     Objective Bounds      |     Work
 Expl Unexpl |  Obj  Depth IntInf | Incumbent    BestBd   Gap | It/Node Time

     0     0 42189.1739    0  181          - 42189.1739      -     -    0s
     0     0 43807.3168    0  217          - 43807.3168      -     -    0s
     0     0 43807.5743    0  210          - 43807.5743      -     -    0s
     0     0 43807.7722    0  220          - 43807.7722      -     -    0s
     0     0 44340.2834    0  233          - 44340.2834      -     -    0s
     0     0 44573.1599    0  234          - 44573.1599      -     -    0s
     0     0 44609.6967    0  221          - 44609.6967      -     -    0s
     0     0 44609.6967    0  233          - 44609.6967      -     -    0s
     0     0 45868.6543    0  233          - 45868.6543      -     -    1s
     0     0 45961.8127    0  196          - 45961.8127      -     -    1s
     0     0 45962.2664    0  190          - 45962.2664      -     -    1s
H    0     0                    54436.000000 46086.9507  15.3%     -    1s
     0     0 46086.9507    0  264 54436.0000 46086.9507  15.3%     -    1s
H    0     0                    53748.000000 46086.9507  14.3%     -    1s
H    0     0                    53702.000000 46086.9507  14.2%     -    1s
     0     0 46111.2920    0  260 53702.0000 46111.2920  14.1%     -    1s
     0     0 46119.6176    0  267 53702.0000 46119.6176  14.1%     -    1s
     0     0 46124.7281    0  286 53702.0000 46124.7281  14.1%     -    1s
     0     0 46124.8357    0  300 53702.0000 46124.8357  14.1%     -    1s
     0     0 46205.6287    0  276 53702.0000 46205.6287  14.0%     -    1s
     0     0 46205.6287    0  162 53702.0000 46205.6287  14.0%     -    1s
H    0     0                    53289.000000 46205.6287  13.3%     -    1s
H    0     0                    53281.000000 46205.6287  13.3%     -    2s
     0     0 46205.6287    0  224 53281.0000 46205.6287  13.3%     -    2s
H    0     0                    52326.000000 46205.6287  11.7%     -    2s
     0     0 46205.6287    0  181 52326.0000 46205.6287  11.7%     -    2s
     0     0 46205.6287    0  255 52326.0000 46205.6287  11.7%     -    2s
     0     0 46206.0053    0  175 52326.0000 46206.0053  11.7%     -    2s
     0     0 46206.0053    0  173 52326.0000 46206.0053  11.7%     -    2s
     0     0 46241.0877    0  273 52326.0000 46241.0877  11.6%     -    2s
     0     0 46254.5339    0  277 52326.0000 46254.5339  11.6%     -    2s
     0     0 46256.9269    0  278 52326.0000 46256.9269  11.6%     -    2s
     0     0 46256.9715    0  281 52326.0000 46256.9715  11.6%     -    2s
     0     0 46368.2562    0  281 52326.0000 46368.2562  11.4%     -    2s
H    0     0                    48918.000000 46368.2562  5.21%     -    2s
     0     0 46413.7695    0  285 48918.0000 46413.7695  5.12%     -    2s
     0     0 46417.7758    0  282 48918.0000 46417.7758  5.11%     -    2s
     0     0 46417.7758    0  288 48918.0000 46417.7758  5.11%     -    2s
     0     0 46478.9828    0  298 48918.0000 46478.9828  4.99%     -    2s
     0     0 46537.4092    0  303 48918.0000 46537.4092  4.87%     -    2s
     0     0 46538.2494    0  319 48918.0000 46538.2494  4.86%     -    2s
     0     0 46548.1801    0  312 48918.0000 46548.1801  4.84%     -    2s
     0     0 46551.6259    0  326 48918.0000 46551.6259  4.84%     -    2s
     0     0 46551.9374    0  334 48918.0000 46551.9374  4.84%     -    2s
     0     0 46553.8877    0  330 48918.0000 46553.8877  4.83%     -    2s
     0     0 46553.8877    0  324 48918.0000 46553.8877  4.83%     -    2s
     0     0 46561.9995    0  149 48918.0000 46561.9995  4.82%     -    3s
     0     0 46561.9995    0  191 48918.0000 46561.9995  4.82%     -    3s
     0     0 46561.9995    0  209 48918.0000 46561.9995  4.82%     -    3s
     0     0 46561.9995    0  226 48918.0000 46561.9995  4.82%     -    3s
     0     0 46577.3863    0  231 48918.0000 46577.3863  4.78%     -    3s
     0     0 46577.6987    0  230 48918.0000 46577.6987  4.78%     -    3s
     0     0 46582.8547    0  268 48918.0000 46582.8547  4.77%     -    3s
     0     0 46582.9653    0  265 48918.0000 46582.9653  4.77%     -    3s
     0     0 46637.8704    0  215 48918.0000 46637.8704  4.66%     -    3s
     0     0 46663.8023    0  217 48918.0000 46663.8023  4.61%     -    3s
     0     0 46669.7053    0  282 48918.0000 46669.7053  4.60%     -    3s
     0     0 46670.5784    0  280 48918.0000 46670.5784  4.59%     -    3s
     0     0 46672.3112    0  295 48918.0000 46672.3112  4.59%     -    3s
     0     0 46672.6237    0  293 48918.0000 46672.6237  4.59%     -    3s
     0     0 46672.8194    0  297 48918.0000 46672.8194  4.59%     -    3s
     0     0 46672.8194    0  280 48918.0000 46672.8194  4.59%     -    3s
     0     2 46681.3060    0  277 48918.0000 46681.3060  4.57%     -    3s
H   29    24                    48914.000000 47374.7101  3.15%   232    4s
*   38    26               6    48022.000000 47383.0000  1.33%   210    4s

Cutting planes:
  Gomory: 1
  Cover: 7
  Clique: 28
  MIR: 46
  StrongCG: 14
  GUB cover: 50
  Zero half: 11
  Mod-K: 1
  RLT: 3

Explored 152 nodes (46053 simplex iterations) in 4.29 seconds (7.41 work units)
Thread count was 8 (of 8 available processors)

Solution count 9: 48022 48914 48918 ... 54436

Optimal solution found (tolerance 1.00e-04)
Best objective 4.802200000000e+04, best bound 4.802200000000e+04, gap 0.0000%
